JulietBench/Juliet_Based_Patch_Bench/qemu/CWE-190-Integer-Overflow-or-Wraparound/CVE_2014_0143_db8a31d11d6a60f48d6817530640d75aa72a9a2f/Resultget_refcount_patch2EQ.smt2
; benchmark generated from python API
(set-info :status unknown)
(declare-fun rsi () (_ BitVec 64))
(declare-fun R () (_ BitVec 32))
(declare-fun rdi () (_ BitVec 64))
(declare-fun rdx () (_ BitVec 64))
(assert
 (let ((?x94 ((_ extract 4 0) rsi)))
 (let ((?x95 (bvadd (_ bv31 5) ?x94)))
 (let ((?x107 (concat (_ bv0 59) ?x95)))
 (let ((?x108 (bvshl (_ bv1 64) ?x107)))
 (let ((?x189 ((_ extract 0 0) ?x108)))
 (let ((?x165 (bvadd (_ bv1 1) ?x189)))
 (let ((?x132 (concat (_ bv0 31) ?x165)))
 (let (($x133 (= R ?x132)))
 (let ((?x39 ((_ extract 5 0) rsi)))
 (let ((?x40 (bvadd (_ bv63 6) ?x39)))
 (let ((?x52 (concat (_ bv0 58) ?x40)))
 (let ((?x87 (bvashr (_ bv1 64) ?x52)))
 (let (($x203 (bvult ?x87 (_ bv100 64))))
 (let (($x126 (= (_ bv0 32) R)))
 (let ((?x53 (bvashr rdi ?x52)))
 (let ((?x55 ((_ extract 31 0) ?x53)))
 (let ((?x44 ((_ sign_extend 32) ?x55)))
 (let (($x34 (bvsle rdx ?x44)))
 (let (($x112 (and $x34 $x126)))
 (let ((?x109 ((_ extract 31 0) ?x108)))
 (let ((?x115 (bvadd (_ bv4294967295 32) ?x109)))
 (let ((?x121 (bvnot ?x115)))
 (let ((?x204 ((_ extract 31 0) rdi)))
 (let ((?x120 (bvnot ?x204)))
 (let ((?x122 (bvor ?x120 ?x121)))
 (let ((?x123 (bvnot ?x122)))
 (let (($x127 (= R ?x123)))
 (let (($x72 (bvsgt rdx ?x44)))
 (let (($x128 (and $x72 $x127)))
 (let (($x118 (or $x128 $x112)))
 (and $x118 $x203 $x133))))))))))))))))))))))))))))))))
(check-sat)
